p cnf 1332
-22 -414
-23 -417
-24 -420
-25 -423
-26 -426
-27 -429
-28 -432
-29 -435
-30 -438
-31 -441
-32 -444
-33 -447
-34 -450
-35 -453
-36 -456
-37 -459
-38 -462
-39 -465
-40 -468
-41 -471
-42 -474
-43 475
-44 476
-45 477
-46 478
-47 479
-48 480
-49 481
-50 482
-51 -23
-51 -24
23 24 51
-52 -25
-52 -26
25 26 52
-53 -27
-53 -28
27 28 53
-54 -29
-54 -30
29 30 54
-55 -31
-55 -32
31 32 55
-56 -33
-56 -34
33 34 56
-57 -35
-57 -36
35 36 57
-58 -37
-58 -38
37 38 58
-59 -39
-59 -40
39 40 59
-60 -41
-60 -42
41 42 60
-61 -43
-61 -44
43 44 61
-62 -45
-62 -46
45 46 62
-63 -47
-63 -48
47 48 63
-64 -49
-64 -50
49 50 64
-65 51
-65 52
-51 -52 65
-66 53
-66 54
-53 -54 66
-67 55
-67 56
-55 -56 67
-68 57
-68 58
-57 -58 68
-69 59
-69 60
-59 -60 69
-70 61
-70 62
-61 -62 70
-71 63
-71 64
-63 -64 71
-72 65
-72 66
-65 -66 72
-73 67
-73 68
-67 -68 73
-74 69
-74 70
-69 -70 74
-75 72
-75 73
-72 -73 75
-76 71
-76 74
-71 -74 76
-77 75
-77 76
-75 -76 77
-78 -22
-78 23
22 -23 78
-79 22
-79 -23
-22 23 79
-80 -78
-80 -79
78 79 80
-81 22
-81 23
-22 -23 81
-82 -22
-82 -80
22 80 82
-83 22
-83 80
-22 -80 83
-84 -82
-84 -83
82 83 84
-85 22
-85 -80
-22 80 85
-86 -81
-86 -85
81 85 86
-87 -23
-87 24
23 -24 87
-88 23
-88 -24
-23 24 88
-89 -87
-89 -88
87 88 89
-90 23
-90 24
-23 -24 90
-91 86
-91 -89
-86 89 91
-92 -86
-92 89
86 -89 92
-93 -91
-93 -92
91 92 93
-94 -86
-94 -89
86 89 94
-95 -90
-95 -94
90 94 95
-96 -24
-96 25
24 -25 96
-97 24
-97 -25
-24 25 97
-98 -96
-98 -97
96 97 98
-99 24
-99 25
-24 -25 99
-100 95
-100 -98
-95 98 100
-101 -95
-101 98
95 -98 101
-102 -100
-102 -101
100 101 102
-103 -95
-103 -98
95 98 103
-104 -99
-104 -103
99 103 104
-105 -25
-105 26
25 -26 105
-106 25
-106 -26
-25 26 106
-107 -105
-107 -106
105 106 107
-108 25
-108 26
-25 -26 108
-109 104
-109 -107
-104 107 109
-110 -104
-110 107
104 -107 110
-111 -109
-111 -110
109 110 111
-112 -104
-112 -107
104 107 112
-113 -108
-113 -112
108 112 113
-114 -26
-114 27
26 -27 114
-115 26
-115 -27
-26 27 115
-116 -114
-116 -115
114 115 116
-117 26
-117 27
-26 -27 117
-118 113
-118 -116
-113 116 118
-119 -113
-119 116
113 -116 119
-120 -118
-120 -119
118 119 120
-121 -113
-121 -116
113 116 121
-122 -117
-122 -121
117 121 122
-123 -27
-123 28
27 -28 123
-124 27
-124 -28
-27 28 124
-125 -123
-125 -124
123 124 125
-126 27
-126 28
-27 -28 126
-127 122
-127 -125
-122 125 127
-128 -122
-128 125
122 -125 128
-129 -127
-129 -128
127 128 129
-130 -122
-130 -125
122 125 130
-131 -126
-131 -130
126 130 131
-132 -28
-132 29
28 -29 132
-133 28
-133 -29
-28 29 133
-134 -132
-134 -133
132 133 134
-135 28
-135 29
-28 -29 135
-136 131
-136 -134
-131 134 136
-137 -131
-137 134
131 -134 137
-138 -136
-138 -137
136 137 138
-139 -131
-139 -134
131 134 139
-140 -135
-140 -139
135 139 140
-141 -29
-141 30
29 -30 141
-142 29
-142 -30
-29 30 142
-143 -141
-143 -142
141 142 143
-144 29
-144 30
-29 -30 144
-145 140
-145 -143
-140 143 145
-146 -140
-146 143
140 -143 146
-147 -145
-147 -146
145 146 147
-148 -140
-148 -143
140 143 148
-149 -144
-149 -148
144 148 149
-150 -30
-150 31
30 -31 150
-151 30
-151 -31
-30 31 151
-152 -150
-152 -151
150 151 152
-153 30
-153 31
-30 -31 153
-154 149
-154 -152
-149 152 154
-155 -149
-155 152
149 -152 155
-156 -154
-156 -155
154 155 156
-157 -149
-157 -152
149 152 157
-158 -153
-158 -157
153 157 158
-159 -31
-159 32
31 -32 159
-160 31
-160 -32
-31 32 160
-161 -159
-161 -160
159 160 161
-162 31
-162 32
-31 -32 162
-163 158
-163 -161
-158 161 163
-164 -158
-164 161
158 -161 164
-165 -163
-165 -164
163 164 165
-166 -158
-166 -161
158 161 166
-167 -162
-167 -166
162 166 167
-168 -32
-168 33
32 -33 168
-169 32
-169 -33
-32 33 169
-170 -168
-170 -169
168 169 170
-171 32
-171 33
-32 -33 171
-172 167
-172 -170
-167 170 172
-173 -167
-173 170
167 -170 173
-174 -172
-174 -173
172 173 174
-175 -167
-175 -170
167 170 175
-176 -171
-176 -175
171 175 176
-177 -33
-177 34
33 -34 177
-178 33
-178 -34
-33 34 178
-179 -177
-179 -178
177 178 179
-180 33
-180 34
-33 -34 180
-181 176
-181 -179
-176 179 181
-182 -176
-182 179
176 -179 182
-183 -181
-183 -182
181 182 183
-184 -176
-184 -179
176 179 184
-185 -180
-185 -184
180 184 185
-186 -34
-186 35
34 -35 186
-187 34
-187 -35
-34 35 187
-188 -186
-188 -187
186 187 188
-189 34
-189 35
-34 -35 189
-190 185
-190 -188
-185 188 190
-191 -185
-191 188
185 -188 191
-192 -190
-192 -191
190 191 192
-193 -185
-193 -188
185 188 193
-194 -189
-194 -193
189 193 194
-195 -35
-195 36
35 -36 195
-196 35
-196 -36
-35 36 196
-197 -195
-197 -196
195 196 197
-198 35
-198 36
-35 -36 198
-199 194
-199 -197
-194 197 199
-200 -194
-200 197
194 -197 200
-201 -199
-201 -200
199 200 201
-202 -194
-202 -197
194 197 202
-203 -198
-203 -202
198 202 203
-204 -36
-204 37
36 -37 204
-205 36
-205 -37
-36 37 205
-206 -204
-206 -205
204 205 206
-207 36
-207 37
-36 -37 207
-208 203
-208 -206
-203 206 208
-209 -203
-209 206
203 -206 209
-210 -208
-210 -209
208 209 210
-211 -203
-211 -206
203 206 211
-212 -207
-212 -211
207 211 212
-213 -37
-213 38
37 -38 213
-214 37
-214 -38
-37 38 214
-215 -213
-215 -214
213 214 215
-216 37
-216 38
-37 -38 216
-217 212
-217 -215
-212 215 217
-218 -212
-218 215
212 -215 218
-219 -217
-219 -218
217 218 219
-220 -212
-220 -215
212 215 220
-221 -216
-221 -220
216 220 221
-222 -38
-222 39
38 -39 222
-223 38
-223 -39
-38 39 223
-224 -222
-224 -223
222 223 224
-225 38
-225 39
-38 -39 225
-226 221
-226 -224
-221 224 226
-227 -221
-227 224
221 -224 227
-228 -226
-228 -227
226 227 228
-229 -221
-229 -224
221 224 229
-230 -225
-230 -229
225 229 230
-231 -39
-231 40
39 -40 231
-232 39
-232 -40
-39 40 232
-233 -231
-233 -232
231 232 233
-234 39
-234 40
-39 -40 234
-235 230
-235 -233
-230 233 235
-236 -230
-236 233
230 -233 236
-237 -235
-237 -236
235 236 237
-238 -230
-238 -233
230 233 238
-239 -234
-239 -238
234 238 239
-240 -40
-240 41
40 -41 240
-241 40
-241 -41
-40 41 241
-242 -240
-242 -241
240 241 242
-243 40
-243 41
-40 -41 243
-244 239
-244 -242
-239 242 244
-245 -239
-245 242
239 -242 245
-246 -244
-246 -245
244 245 246
-247 -239
-247 -242
239 242 247
-248 -243
-248 -247
243 247 248
-249 -41
-249 42
41 -42 249
-250 41
-250 -42
-41 42 250
-251 -249
-251 -250
249 250 251
-252 41
-252 42
-41 -42 252
-253 248
-253 -251
-248 251 253
-254 -248
-254 251
248 -251 254
-255 -253
-255 -254
253 254 255
-256 -248
-256 -251
248 251 256
-257 -252
-257 -256
252 256 257
-258 -42
-258 43
42 -43 258
-259 42
-259 -43
-42 43 259
-260 -258
-260 -259
258 259 260
-261 42
-261 43
-42 -43 261
-262 257
-262 -260
-257 260 262
-263 -257
-263 260
257 -260 263
-264 -262
-264 -263
262 263 264
-265 -257
-265 -260
257 260 265
-266 -261
-266 -265
261 265 266
-267 -43
-267 44
43 -44 267
-268 43
-268 -44
-43 44 268
-269 -267
-269 -268
267 268 269
-270 43
-270 44
-43 -44 270
-271 266
-271 -269
-266 269 271
-272 -266
-272 269
266 -269 272
-273 -271
-273 -272
271 272 273
-274 -266
-274 -269
266 269 274
-275 -270
-275 -274
270 274 275
-276 -44
-276 45
44 -45 276
-277 44
-277 -45
-44 45 277
-278 -276
-278 -277
276 277 278
-279 44
-279 45
-44 -45 279
-280 275
-280 -278
-275 278 280
-281 -275
-281 278
275 -278 281
-282 -280
-282 -281
280 281 282
-283 -275
-283 -278
275 278 283
-284 -279
-284 -283
279 283 284
-285 -45
-285 46
45 -46 285
-286 45
-286 -46
-45 46 286
-287 -285
-287 -286
285 286 287
-288 45
-288 46
-45 -46 288
-289 284
-289 -287
-284 287 289
-290 -284
-290 287
284 -287 290
-291 -289
-291 -290
289 290 291
-292 -284
-292 -287
284 287 292
-293 -288
-293 -292
288 292 293
-294 -46
-294 47
46 -47 294
-295 46
-295 -47
-46 47 295
-296 -294
-296 -295
294 295 296
-297 46
-297 47
-46 -47 297
-298 293
-298 -296
-293 296 298
-299 -293
-299 296
293 -296 299
-300 -298
-300 -299
298 299 300
-301 -293
-301 -296
293 296 301
-302 -297
-302 -301
297 301 302
-303 -47
-303 48
47 -48 303
-304 47
-304 -48
-47 48 304
-305 -303
-305 -304
303 304 305
-306 47
-306 48
-47 -48 306
-307 302
-307 -305
-302 305 307
-308 -302
-308 305
302 -305 308
-309 -307
-309 -308
307 308 309
-310 -302
-310 -305
302 305 310
-311 -306
-311 -310
306 310 311
-312 -48
-312 49
48 -49 312
-313 48
-313 -49
-48 49 313
-314 -312
-314 -313
312 313 314
-315 48
-315 49
-48 -49 315
-316 311
-316 -314
-311 314 316
-317 -311
-317 314
311 -314 317
-318 -316
-318 -317
316 317 318
-319 -311
-319 -314
311 314 319
-320 -315
-320 -319
315 319 320
-321 -49
-321 50
49 -50 321
-322 49
-322 -50
-49 50 322
-323 -321
-323 -322
321 322 323
-324 49
-324 50
-49 -50 324
-325 320
-325 -323
-320 323 325
-326 -320
-326 323
320 -323 326
-327 -325
-327 -326
325 326 327
-328 -320
-328 -323
320 323 328
-329 -324
-329 -328
324 328 329
-330 22
-330 -84
-22 84 330
-331 -22
-331 24
22 -24 331
-332 -330
-332 -331
330 331 332
-333 22
-333 -93
-22 93 333
-334 -22
-334 25
22 -25 334
-335 -333
-335 -334
333 334 335
-336 22
-336 -102
-22 102 336
-337 -22
-337 26
22 -26 337
-338 -336
-338 -337
336 337 338
-339 22
-339 -111
-22 111 339
-340 -22
-340 27
22 -27 340
-341 -339
-341 -340
339 340 341
-342 22
-342 -120
-22 120 342
-343 -22
-343 28
22 -28 343
-344 -342
-344 -343
342 343 344
-345 22
-345 -129
-22 129 345
-346 -22
-346 29
22 -29 346
-347 -345
-347 -346
345 346 347
-348 22
-348 -138
-22 138 348
-349 -22
-349 30
22 -30 349
-350 -348
-350 -349
348 349 350
-351 22
-351 -147
-22 147 351
-352 -22
-352 31
22 -31 352
-353 -351
-353 -352
351 352 353
-354 22
-354 -156
-22 156 354
-355 -22
-355 32
22 -32 355
-356 -354
-356 -355
354 355 356
-357 22
-357 -165
-22 165 357
-358 -22
-358 33
22 -33 358
-359 -357
-359 -358
357 358 359
-360 22
-360 -174
-22 174 360
-361 -22
-361 34
22 -34 361
-362 -360
-362 -361
360 361 362
-363 22
-363 -183
-22 183 363
-364 -22
-364 35
22 -35 364
-365 -363
-365 -364
363 364 365
-366 22
-366 -192
-22 192 366
-367 -22
-367 36
22 -36 367
-368 -366
-368 -367
366 367 368
-369 22
-369 -201
-22 201 369
-370 -22
-370 37
22 -37 370
-371 -369
-371 -370
369 370 371
-372 22
-372 -210
-22 210 372
-373 -22
-373 38
22 -38 373
-374 -372
-374 -373
372 373 374
-375 22
-375 -219
-22 219 375
-376 -22
-376 39
22 -39 376
-377 -375
-377 -376
375 376 377
-378 22
-378 -228
-22 228 378
-379 -22
-379 40
22 -40 379
-380 -378
-380 -379
378 379 380
-381 22
-381 -237
-22 237 381
-382 -22
-382 41
22 -41 382
-383 -381
-383 -382
381 382 383
-384 22
-384 -246
-22 246 384
-385 -22
-385 42
22 -42 385
-386 -384
-386 -385
384 385 386
-387 22
-387 -255
-22 255 387
-388 -22
-388 43
22 -43 388
-389 -387
-389 -388
387 388 389
-390 22
-390 -264
-22 264 390
-391 -22
-391 44
22 -44 391
-392 -390
-392 -391
390 391 392
-393 22
-393 -273
-22 273 393
-394 -22
-394 45
22 -45 394
-395 -393
-395 -394
393 394 395
-396 22
-396 -282
-22 282 396
-397 -22
-397 46
22 -46 397
-398 -396
-398 -397
396 397 398
-399 22
-399 -291
-22 291 399
-400 -22
-400 47
22 -47 400
-401 -399
-401 -400
399 400 401
-402 22
-402 -300
-22 300 402
-403 -22
-403 48
22 -48 403
-404 -402
-404 -403
402 403 404
-405 22
-405 -309
-22 309 405
-406 -22
-406 49
22 -49 406
-407 -405
-407 -406
405 406 407
-408 22
-408 -318
-22 318 408
-409 -22
-409 50
22 -50 409
-410 -408
-410 -409
408 409 410
-411 22
-411 -327
-22 327 411
-412 1
-412 77
-1 -77 412
-413 -77
-413 78
77 -78 413
-414 -412
-414 -413
412 413 414
-415 2
-415 77
-2 -77 415
-416 -77
-416 -332
77 332 416
-417 -415
-417 -416
415 416 417
-418 3
-418 77
-3 -77 418
-419 -77
-419 -335
77 335 419
-420 -418
-420 -419
418 419 420
-421 4
-421 77
-4 -77 421
-422 -77
-422 -338
77 338 422
-423 -421
-423 -422
421 422 423
-424 5
-424 77
-5 -77 424
-425 -77
-425 -341
77 341 425
-426 -424
-426 -425
424 425 426
-427 6
-427 77
-6 -77 427
-428 -77
-428 -344
77 344 428
-429 -427
-429 -428
427 428 429
-430 7
-430 77
-7 -77 430
-431 -77
-431 -347
77 347 431
-432 -430
-432 -431
430 431 432
-433 8
-433 77
-8 -77 433
-434 -77
-434 -350
77 350 434
-435 -433
-435 -434
433 434 435
-436 9
-436 77
-9 -77 436
-437 -77
-437 -353
77 353 437
-438 -436
-438 -437
436 437 438
-439 10
-439 77
-10 -77 439
-440 -77
-440 -356
77 356 440
-441 -439
-441 -440
439 440 441
-442 11
-442 77
-11 -77 442
-443 -77
-443 -359
77 359 443
-444 -442
-444 -443
442 443 444
-445 12
-445 77
-12 -77 445
-446 -77
-446 -362
77 362 446
-447 -445
-447 -446
445 446 447
-448 13
-448 77
-13 -77 448
-449 -77
-449 -365
77 365 449
-450 -448
-450 -449
448 449 450
-451 14
-451 77
-14 -77 451
-452 -77
-452 -368
77 368 452
-453 -451
-453 -452
451 452 453
-454 15
-454 77
-15 -77 454
-455 -77
-455 -371
77 371 455
-456 -454
-456 -455
454 455 456
-457 16
-457 77
-16 -77 457
-458 -77
-458 -374
77 374 458
-459 -457
-459 -458
457 458 459
-460 17
-460 77
-17 -77 460
-461 -77
-461 -377
77 377 461
-462 -460
-462 -461
460 461 462
-463 18
-463 77
-18 -77 463
-464 -77
-464 -380
77 380 464
-465 -463
-465 -464
463 464 465
-466 19
-466 77
-19 -77 466
-467 -77
-467 -383
77 383 467
-468 -466
-468 -467
466 467 468
-469 20
-469 77
-20 -77 469
-470 -77
-470 -386
77 386 470
-471 -469
-471 -470
469 470 471
-472 21
-472 77
-21 -77 472
-473 -77
-473 -389
77 389 473
-474 -472
-474 -473
472 473 474
-475 -77
-475 -392
77 392 475
-476 -77
-476 -395
77 395 476
-477 -77
-477 -398
77 398 477
-478 -77
-478 -401
77 401 478
-479 -77
-479 -404
77 404 479
-480 -77
-480 -407
77 407 480
-481 -77
-481 -410
77 410 481
-482 -77
-482 411
77 -411 482
-483 -50
-483 329
50 -329 483
-484 22
-484 -483
-22 483 484
484
